50

100 25 202
100 25 309
99 21 208
96 25 347
95 23 225
94 16 404
92 5 196
92 27 325
90 8 347
89 7 371
89 23 307
84 13 174
82 21 377
80 1 413
80 22 251
79 1 403
74 6 268
74 22 200
72 15 312
71 15 243
69 4 442
67 17 441
67 8 178
64 11 238
62 1 446
60 15 353
60 16 430
59 8 279
58 14 295
55 7 406
51 16 400
48 9 450
47 9 387
46 14 204
45 4 217
43 2 276
42 8 377
41 5 206
41 2 173
40 10 392
38 2 303
34 2 222
33 6 234
32 2 449
27 4 362
26 5 419
24 7 413
24 4 273
23 2 413
20 3 399
